% demand
num_movements = 31;
loading_factor = [1350, 2000, 850, 1850, 950, 1750, 800, 850, 800, 1400, 1850, 800, 1850, 1100, 1550, 1450, 1950, 1200, 1000, 800, 1300, 1350, 2000, 1550, 1750, 1450, 1700, 1350, 800, 1200, 1350];
pickup_time = [0, 0, 0, 0, 0, 2, 2, 3, 4, 5, 5, 5, 5, 5, 6, 6, 6, 6, 8, 8, 8, 8, 8, 10, 10, 10, 11, 11, 11, 11, 11];
delivery_time = [1, 5, 1, 1, 1, 4, 4, 4, 5, 6, 6, 8, 6, 6, 8, 8, 8, 8, 9, 11, 10, 11, 9, 11, 11, 11, 13, 13, 13, 13, 13];

% transporter definition
total_capacity = 7000;
num_decks = 3;
capacity = [3000, 1000, 3000];

% ways out of decks
num_ways_out = 1;
paths_out = array3d(decks, ways_out, decks, [
% ways out of deck d1
2, 3, 0, 

% ways out of deck d2
3, 0, 0, 

% ways out of deck d3
0, 0, 0,	

]);

